c --- [ banner ] -------------------------------------------------------------
c 
c CaDiCaL Radically Simplified CDCL SAT Solver
c Copyright (c) 2016-2021 A. Biere, M. Fleury, N. Froleyks
c 
c Version 1.5.2 a5f15211db36c3956764e18194dd5bd63bf3b5e6
c g++ (GCC) 9.3.0 -Wall -Wextra -O3 -DNDEBUG
c Fri Oct 21 01:27:37 EDT 2022 Linux gra-login3 3.10.0-1160.66.1.el7.x86_64 x86_64
c 
c --- [ limit ] --------------------------------------------------------------
c 
c setting conflict limit to 200000 conflicts (due to '200000')
c 
c --- [ parsing input ] ------------------------------------------------------
c 
c reading DIMACS file from '33.cubes4335.adj'
c opening file to read '33.cubes4335.adj'
c found 'p cnf 6160 1595474' header
c parsed 1595474 clauses in 19.66 seconds process time
c closing file '33.cubes4335.adj'
c after reading 1457566765 bytes 1390.0 MB
c 
c --- [ options ] ------------------------------------------------------------
c 
c all options are set to their default value
c 
c --- [ solving ] ------------------------------------------------------------
c 
c time measured in process time since initialization
c 
c  seconds    reductions  redundant   irredundant
c          MB     restarts       trail       variables
c            level   conflicts       glue         remaining
c 
c * 19.66 1376  0 0   0    0    0  0% 0 1595422 2439 40%
c { 20.46 1413  0 0   0    0    0  0% 0 1595422 2439 40%
c i 22.30 1471 1012 0   0   67   53 41% 11 1595422 2438 40%
c i 22.88 1484 825 0   4   83   68 39% 17 1595422 2434 40%
c i 22.95 1484 778 0   5   90   73 38% 21 1595422 2426 39%
c i 23.25 1486 711 0   7  100   81 37% 21 1595422 2425 39%
c i 23.31 1486 696 0   8  102   82 37% 22 1595422 2424 39%
c i 23.40 1487 651 0  10  109   88 36% 23 1595422 2423 39%
c i 23.55 1488 605 0  13  117   95 35% 24 1595422 2422 39%
c i 23.63 1492 572 0  15  125  102 34% 22 1595422 2421 39%
c i 24.62 1500 526 0  18  138  114 33% 24 1595422 2414 39%
c i 25.28 1504 476 0  24  156  129 33% 26 1595422 2407 39%
c i 26.68 1511 386 0  37  225  172 30% 30 1595422 2396 39%
c i 27.06 1513 359 0  40  242  184 30% 30 1595422 2395 39%
c i 27.37 1514 324 0  42  267  204 30% 28 1595422 2393 39%
c i 27.73 1515 291 0  42  296  231 30% 27 1595422 2392 39%
c - 31.60 1446 288 1  42  301  235 30% 28 410414 2392 39%
c i 32.02 1418 265 1  42  333  263 30% 27 410414 2391 39%
c i 32.04 1418 263 1  42  336  265 30% 27 410414 2390 39%
c i 32.04 1418 263 1  42  337  265 30% 27 410414 2389 39%
c 
c  seconds     reductions  redundant   irredundant
c          MB      restarts       trail       variables
c             level   conflicts       glue         remaining
c 
c i 32.05 1418 259 1  42  342  269 30% 27 410414 2388 39%
c i 32.15 1418 239 1  43  382  302 30% 28 410414 2387 39%
c i 32.24 1418 233 1  47  394  310 30% 28 410414 2386 39%
c i 32.36 1418 230 1  49  409  324 30% 30 410414 2385 39%
c i 32.55 1418 227 1  54  427  341 30% 32 410414 2384 39%
c i 32.58 1418 225 1  56  434  347 30% 32 410414 2377 39%
c i 33.16 1419 220 1  61  469  373 30% 34 410414 2355 38%
c i 33.28 1419 214 1  65  482  383 29% 33 410414 2340 38%
c i 33.29 1419 214 1  65  483  383 29% 33 410414 2339 38%
c i 33.51 1419 206 1  72  509  406 29% 34 410414 2338 38%
c i 33.54 1419 205 1  72  510  406 29% 34 410414 2337 38%
c i 34.00 1419 184 1  75  581  468 29% 32 410414 2336 38%
c i 34.04 1419 179 1  75  598  483 29% 32 410414 2335 38%
c i 34.09 1419 173 1  75  624  507 29% 31 410414 2334 38%
c i 34.38 1419 160 1  75  704  571 29% 32 410414 2333 38%
c i 34.38 1419 160 1  75  705  571 29% 32 410414 2332 38%
c i 34.49 1419 152 1  76  755  614 29% 32 410414 2331 38%
c i 34.50 1419 152 1  76  756  614 29% 31 410414 2330 38%
c i 34.61 1419 147 1  76  794  649 29% 32 410414 2329 38%
c i 34.81 1420 146 1  80  818  670 29% 32 410414 2328 38%
c 
c  seconds     reductions  redundant   irredundant
c          MB      restarts       trail       variables
c             level   conflicts       glue         remaining
c 
c i 34.99 1420 139 1  83  874  720 29% 32 410414 2327 38%
c i 34.99 1420 139 1  83  875  720 29% 32 410414 2326 38%
c i 35.02 1420 136 1  83  903  745 29% 31 410414 2325 38%
c i 35.37 1420 128 1  87  984  815 29% 32 410414 2324 38%
c } 35.55 1420 129 1  91 1000  830 29% 32 410414 2324 38%
c [ 35.55 1420  0 1  91 1000  830  0% 0 410414 2324 38%
c O 35.56 1420 99 1  91 1002  832 24% 76 410414 2324 38%
c i 36.00 1420 36 1  91 1070  894 29% 27 410414 2323 38%
c i 36.06 1420 40 1  91 1091  914 29% 29 410414 2322 38%
c i 36.10 1420 46 1  91 1132  943 29% 35 410414 2321 38%
c i 36.18 1420 46 1  91 1171  974 29% 34 410414 2320 38%
c i 36.24 1420 44 1  91 1239 1019 30% 34 410414 2319 38%
c i 36.26 1420 44 1  91 1262 1033 30% 34 410414 2318 38%
c i 36.26 1420 43 1  91 1263 1033 30% 34 410414 2317 38%
c - 37.11 1525 43 2  91 1268  923 30% 34 331322 2317 38%
c i 37.21 1525 43 2  91 1277  931 30% 33 331322 2316 38%
c i 37.21 1525 43 2  91 1278  931 30% 33 331322 2315 38%
c i 37.29 1525 42 2  91 1293  937 30% 33 331322 2314 38%
c i 37.41 1525 39 2  91 1350  980 30% 31 331322 2313 38%
c i 37.41 1525 39 2  91 1351  980 30% 31 331322 2312 38%
c 
c  seconds    reductions  redundant   irredundant
c          MB     restarts       trail       variables
c            level   conflicts       glue         remaining
c 
c i 37.51 1525 34 2  91 1526 1090 30% 28 331322 2311 38%
c i 37.69 1525 31 2  91 1850 1271 30% 26 331322 2310 38%
c i 37.70 1525 31 2  91 1866 1277 30% 26 331322 2309 37%
c i 37.84 1525 30 2  92 2057 1388 30% 26 331322 2308 37%
c i 37.86 1525 30 2  92 2102 1417 30% 26 331322 2307 37%
c i 38.01 1525 30 2  92 2336 1566 30% 26 331322 2306 37%
c - 38.70 1522 29 3  92 2638 1245 30% 25 331289 2306 37%
c i 39.41 1522 28 3  92 3002 1468 50% 25 331289 2305 37%
c ] 39.41 1522 28 3  92 3002 1468 50% 25 331289 2305 37%
c { 39.41 1522 129 3  92 3002 1468 78% 32 331289 2305 37%
c F 39.42 1522 129 3  93 3003 1468 78% 32 331289 2305 37%
c i 39.42 1522 129 3  93 3003 1468 78% 32 331289 2281 37%
c i 39.60 1522 126 3  93 3027 1485 78% 32 331289 2280 37%
c i 39.92 1522 124 3  94 3066 1519 76% 32 331289 2279 37%
c i 41.19 1522 120 3 120 3200 1633 73% 33 331289 2278 37%
c i 41.49 1522 111 3 121 3309 1727 70% 31 331289 2277 37%
c i 41.64 1522 108 3 121 3351 1763 70% 31 331289 2276 37%
c i 41.96 1522 102 3 121 3477 1851 67% 30 331289 2275 37%
c i 42.58 1522 96 3 127 3636 1985 65% 29 331289 2274 37%
c i 42.96 1522 94 3 130 3694 2032 64% 29 331289 2273 37%
c 
c  seconds    reductions  redundant   irredundant
c          MB     restarts       trail       variables
c            level   conflicts       glue         remaining
c 
c i 43.12 1522 88 3 130 3880 2169 63% 28 331289 2272 37%
c i 43.46 1522 79 3 140 4235 2442 61% 28 331289 2271 37%
c - 44.18 1515 74 4 141 4464 1942 60% 28 330802 2271 37%
c i 44.43 1515 73 4 141 4546 2006 60% 28 330802 2270 37%
c i 44.47 1515 72 4 141 4590 2035 60% 27 330802 2269 37%
c i 44.65 1515 71 4 145 4637 2072 60% 28 330802 2268 37%
c i 45.39 1515 73 4 165 4720 2142 59% 29 330802 2267 37%
c i 45.46 1515 72 4 168 4728 2147 59% 29 330802 2266 37%
c i 46.22 1515 70 4 174 4974 2353 58% 28 330802 2265 37%
c 2 46.87 1515 69 4 174 5000 3461 58% 28 330762 2254 37%
c p 55.00 1515 69 4 174 5000 6153 58% 28 330762 2189 36%
c d 55.55 1515 69 4 174 5000 5999 58% 28 330572 2188 36%
c # 58.15 1515 61 4 204 6007 6801 56% 28 330572 2188 36%
c - 58.74 1380 54 5 204 6743 2639 56% 26 330572 2188 36%
c } 58.82 1380 52 5 204 7002 2810 56% 25 330572 2188 36%
c [ 58.82 1380 28 5 204 7002 2810 50% 25 330572 2188 36%
c - 59.78 1381 26 6 206 9478 2747 52% 23 330572 2188 36%
c I 60.09 1381 26 6 206 10008 3006 52% 23 330572 2188 36%
c - 63.40 1509 52 7 208 12669 3703 49% 41 330572 2188 36%
c p 68.47 1509 63 7 209 15000 9200 48% 48 330572 2188 36%
c 
c  seconds    reductions   redundant   irredundant
c          MB     restarts        trail       variables
c            level    conflicts       glue         remaining
c 
c ] 68.69 1509 63 7 209 15007 9206 48% 48 330572 2188 36%
c { 68.69 1509 52 7 209 15007 9206 56% 25 330572 2188 36%
c B 68.83 1509 52 7 209 15011 9210 56% 25 330572 2188 36%
c - 72.57 1381 50 8 274 16315 4749 54% 26 330572 2188 36%
c s 74.35 1381 43 8 274 18707 6265 53% 24 328993 2188 36%
c v 81.30 1381 43 8 274 18707 6265 53% 24 328989 2188 36%
c t 81.50 1381 43 8 274 18707 6254 53% 24 328986 2188 36%
c e 82.76 1384 43 8 274 18707 5739 53% 24 326146 785 13%
c s 82.88 1384 43 8 274 18707 5739 53% 24 325762 785 13%
c - 86.28 1385 39 9 281 20418 4812 77% 23 325762 785 13%
c W 87.32 1385 38 9 289 21015 5273 77% 23 325762 785 13%
c - 99.27 1385 36 10 511 24956 5618 75% 22 325762 785 13%
c F 107.38 1385 34 10 601 28016 7733 74% 21 325762 785 13%
c - 108.98 1385 32 11 602 29948 6173 75% 21 325762 785 13%
c p 111.52 1385 32 11 602 30000 7870 75% 21 325762 785 13%
c } 112.45 1385 31 11 602 31008 8634 75% 20 325762 785 13%
c [ 112.45 1385 63 11 602 31008 8634 140% 48 325762 785 13%
c - 115.25 1385 50 12 604 35394 6789 117% 39 325762 785 13%
c B 115.95 1385 50 12 605 36019 7190 115% 39 325762 785 13%
c - 121.14 1385 44 13 608 41296 7045 103% 35 325762 785 13%
c 
c  seconds     reductions    redundant   irredundant
c           MB      restarts        trail       variables
c             level     conflicts       glue        remaining
c 
c W 124.99 1385 42 13 609 45020 9586 98% 33 325762 785 13%
c - 127.25 1385 40 14 610 47652 7825 96% 32 325762 785 13%
c p 130.91 1385 39 14 610 50001 11129 94% 31 325762 785 13%
c - 133.59 1385 37 15 611 54464 8669 91% 30 325762 785 13%
c O 133.79 1385 37 15 611 55023 9081 91% 30 325762 785 13%
c ] 134.80 1385 36 15 613 57283 10763 90% 29 325762 785 13%
c 1 134.80 1385 36 15 613 57283 10763 90% 29 325762 785 13%
c 
c --- [ writing output ] -----------------------------------------------------
c 
c writing simplified CNF to DIMACS file 'simp/33.cubes4335.adj.simp1'
c * 134.80 1385 36 15 613 57283 10763 90% 29 325762 785 13%
c opening file to write 'simp/33.cubes4335.adj.simp1'
c writing 'p cnf 6160 325762' header
c closing file 'simp/33.cubes4335.adj.simp1'
c after writing 146599277 bytes 139.8 MB
c wrote 325762 clauses in 1.05 seconds process time
c 
c --- [ writing extension ] --------------------------------------------------
c 
c writing extension stack to 'simp/33.cubes4335.adj.ext1'
c opening file to write 'simp/33.cubes4335.adj.ext1'
c closing file 'simp/33.cubes4335.adj.ext1'
c after writing 91502 bytes 0.1 MB
c wrote 4060 witnesses in 0.00 seconds process time
c 
c --- [ result ] -------------------------------------------------------------
c 
s SATISFIABLE
c 
c --- [ run-time profiling ] -------------------------------------------------
c 
c process time taken by individual solving procedures
c (percentage relative to process time for solving)
c 
c        88.87   77.18% search
c        56.60   49.16% unstable
c        29.99   26.05% stable
c        26.27   22.82% simplify
c        19.66   17.08% parse
c        15.03   13.06% probe
c         7.11    6.18% vivify
c         2.37    2.06% elim
c         1.48    1.29% walk
c         0.80    0.69% lucky
c         0.23    0.20% subsume
c         0.18    0.16% ternary
c   =================================
c       115.14   84.75% solve
c 
c last line shows process time for solving
c (percentage relative to total process time)
c 
c --- [ statistics ] ---------------------------------------------------------
c 
c chronological:             10019        17.49 %  of conflicts
c conflicts:                 57283       497.49    per second
c decisions:                112329       975.56    per second
c eliminated:                 1403        22.78 %  of all variables
c fixed:                       816        13.25 %  of all variables
c learned:                   56125        97.98 %  per conflict
c learned_lits:           10813330       100.00 %  learned literals
c minimized:                     0         0.00 %  learned literals
c shrunken:                6307263        58.33 %  learned literals
c minishrunken:             926267         8.57 %  learned literals
c propagations:            4658186         0.04 M  per second
c reduced:                   28518        49.78 %  per conflict
c rephased:                     10      5728.30    interval
c restarts:                    613        93.45    interval
c stabilizing:                   3        63.34 %  of conflicts
c substituted:                  12         0.19 %  of all variables
c subsumed:                  18539         0.53 %  of all clauses
c strengthened:               3989         0.11 %  of all clauses
c ternary:                    2792         0.63 %  of resolved
c vivified:                     14         0.00 %  of all clauses
c walked:                        2     28641.50    interval
c weakened:                   3244         3.01    average size
c 
c seconds are measured in process time for solving
c 
c --- [ resources ] ----------------------------------------------------------
c 
c total process time since initialization:       135.86    seconds
c total real time since initialization:          135.99    seconds
c maximum resident set size of process:         1667.91    MB
c 
c --- [ shutting down ] ------------------------------------------------------
c 
c exit 10
WARNING! DIMACS header mismatch: wrong number of variables.
============================[ Problem Statistics ]=============================
|                                                                             |
|  Number of variables:          3023                                         |
|  Number of clauses:          325762                                         |
|  Parse time:                   1.93 s                                       |
|  Simplification time:          0.05 s                                       |
|                                                                             |
============================[ Search Statistics ]====================================================
| Conflicts |          ORIGINAL         |          LEARNT          | Num Sols |      SUBGRAPHS      |
|           |    Vars  Clauses Literals |    Limit  Clauses Lit/Cl |          | Canonical Noncanon. |
=====================================================================================================
|       165 |    2931   325827 31817542 |     2000      165     52 |        0 |        39        65 |
|       326 |    2931   325838 31817800 |     2000      326     52 |        0 |        64        76 |
|       567 |    2931   325854 31818113 |     2000      567     69 |        0 |        84        92 |
|       911 |    2931   325861 31818403 |     2000      911     83 |        0 |       103        99 |
|      1460 |    2931   325904 31819548 |     2000     1460     94 |        0 |       134       142 |
|      2701 |    2931   326386 31828544 |     3600     1701     46 |        0 |       289       624 |
|      4370 |    2931   326916 31835647 |     3600     3370     59 |        0 |       432      1154 |
|      6180 |    2931   327018 31837444 |     5001     3381     52 |        0 |       479      1256 |
|      8755 |    2931   327031 31837893 |     6305     3460     39 |        0 |       498      1269 |
|     14310 |    2931   328742 31864239 |     7558     5868     45 |        0 |       904      2980 |
|     20810 |    2931   329476 31876416 |     8791     8601     58 |        0 |      1128      3714 |
|     32234 |    2931   332251 31920625 |    11202    10636     63 |        0 |      1718      6489 |
|     45849 |    2931   332892 31932145 |    13613    12462     62 |        0 |      1909      7130 |
|     69580 |    2931   337162 32012517 |    17210    13990     51 |        0 |      2925     11400 |
|    102946 |    2931   341336 32077208 |    20804    19750     55 |        0 |      3880     15574 |
|    154852 |    2931   349453 32202227 |    26807    13659     20 |        0 |      5131     23691 |
|    225753 |    2931   354670 32281548 |    31616    27369     61 |        0 |      6240     28908 |
|    338500 |    2931   368891 32498079 |    38817    36317     70 |        0 |      8066     43129 |
|    501062 |    2931   383664 32814444 |    48416    26878     31 |        0 |     10916     57902 |
|    753433 |    2929   414352 33278947 |    59211    39844     43 |        0 |     15717     88590 |
=====================================================================================================
Number of solutions   : 0
Canonical subgraphs   : 20025          (27 /sec)
          order  3    : 1              (166667 /sec)
          order  4    : 1              (500000 /sec)
          order  5    : 1              (200000 /sec)
          order  6    : 1              (55556 /sec)
          order  7    : 1              (8850 /sec)
          order  8    : 2              (1357 /sec)
          order  9    : 7              (353 /sec)
          order 10    : 32             (113 /sec)
          order 11    : 149            (63 /sec)
          order 12    : 844            (53 /sec)
          order 13    : 1049           (74 /sec)
          order 14    : 2916           (52 /sec)
          order 15    : 3179           (38 /sec)
          order 16    : 7686           (23 /sec)
          order 17    : 3292           (18 /sec)
          order 18    : 668            (13 /sec)
          order 19    : 175            (13 /sec)
          order 20    : 17             (14 /sec)
          order 21    : 4              (16 /sec)
          order 22    : 0              (-nan /sec)
Noncanonical subgraphs: 109808         (229 /sec)
          order  3    : 0              (-nan /sec)
          order  4    : 0              (-nan /sec)
          order  5    : 0              (-nan /sec)
          order  6    : 0              (-nan /sec)
          order  7    : 0              (-nan /sec)
          order  8    : 0              (-nan /sec)
          order  9    : 0              (-nan /sec)
          order 10    : 0              (-nan /sec)
          order 11    : 0              (-nan /sec)
          order 12    : 0              (-nan /sec)
          order 13    : 11945          (2388 /sec)
          order 14    : 6522           (2649 /sec)
          order 15    : 5030           (1232 /sec)
          order 16    : 75840          (198 /sec)
          order 17    : 8999           (135 /sec)
          order 18    : 1458           (76 /sec)
          order 19    : 9              (97 /sec)
          order 20    : 1              (34 /sec)
          order 21    : 0              (-nan /sec)
Canonicity checking   : 750.341 s
Noncanonicity checking: 480.433 s
Total canonicity time : 1230.77 s
database reductions   : 56
restarts              : 2047
conflicts             : 1045222        (593 /sec)
decisions             : 1459818        (0.00 % random) (828 /sec)
propagations          : 43014582       (24396 /sec)
conflict literals     : 108477945      (51.98 % deleted)
actual reward         : 0.292717
Memory used           : 460.00 MB
CPU time              : 1763.17 s

UNSATISFIABLE
